GeneratedTests/Random_5/Random_5_20.tsp
NAME: Random_5_20
TYPE: TSP
DIMENSION: 5
EDGE_WEIGHT_TYPE: EUC_2D
NODE_COORD_SECTION
1 7.2205024 10.074388
2 7.813157 5.8955483
3 6.1351595 7.100073
4 9.779495 4.024222
5 0.8707255 8.006587
EOF
