GeneratedTests/Random_5/Random_5_20.txt
NAME: Random_5_20
TYPE: TSP
DIMENSION: 5
EDGE_WEIGHT_TYPE: EUC_2D
NODE_COORD_SECTION
1 12.840534 0.50331384
2 13.888444 1.1900407
3 0.3708458 10.028365
4 11.636069 13.304902
5 14.219379 0.06957203
EOF
